p cnf 225 1404
1 -103 0
1 -104 0
103 -103 0
104 -104 0
18 -109 0
18 -110 0
109 -109 0
110 -110 0
35 -115 0
35 -116 0
115 -115 0
116 -116 0
52 -121 0
52 -122 0
121 -121 0
122 -122 0
69 -127 0
69 -128 0
127 -127 0
128 -128 0
86 -133 0
86 -134 0
133 -133 0
134 -134 0
2 -103 0
2 -104 0
103 -103 0
104 -104 0
19 -109 0
19 -110 0
109 -109 0
110 -110 0
36 -115 0
36 -116 0
115 -115 0
116 -116 0
53 -121 0
53 -122 0
121 -121 0
122 -122 0
70 -127 0
70 -128 0
127 -127 0
128 -128 0
87 -133 0
87 -134 0
133 -133 0
134 -134 0
-3 -103 0
-3 -104 0
103 -103 0
104 -104 0
-20 -109 0
-20 -110 0
109 -109 0
110 -110 0
-37 -115 0
-37 -116 0
115 -115 0
116 -116 0
-54 -121 0
-54 -122 0
121 -121 0
122 -122 0
-71 -127 0
-71 -128 0
127 -127 0
128 -128 0
-88 -133 0
-88 -134 0
133 -133 0
134 -134 0
4 -103 0
4 -104 0
103 -103 0
104 -104 0
21 -109 0
21 -110 0
109 -109 0
110 -110 0
38 -115 0
38 -116 0
115 -115 0
116 -116 0
55 -121 0
55 -122 0
121 -121 0
122 -122 0
72 -127 0
72 -128 0
127 -127 0
128 -128 0
89 -133 0
89 -134 0
133 -133 0
134 -134 0
5 -103 0
5 -104 0
103 -103 0
104 -104 0
22 -109 0
22 -110 0
109 -109 0
110 -110 0
39 -115 0
39 -116 0
115 -115 0
116 -116 0
56 -121 0
56 -122 0
121 -121 0
122 -122 0
73 -127 0
73 -128 0
127 -127 0
128 -128 0
90 -133 0
90 -134 0
133 -133 0
134 -134 0
6 -103 0
6 -104 0
103 -103 0
104 -104 0
23 -109 0
23 -110 0
109 -109 0
110 -110 0
40 -115 0
40 -116 0
115 -115 0
116 -116 0
57 -121 0
57 -122 0
121 -121 0
122 -122 0
74 -127 0
74 -128 0
127 -127 0
128 -128 0
91 -133 0
91 -134 0
133 -133 0
134 -134 0
7 -103 0
7 -104 0
103 -103 0
104 -104 0
24 -109 0
24 -110 0
109 -109 0
110 -110 0
41 -115 0
41 -116 0
115 -115 0
116 -116 0
58 -121 0
58 -122 0
121 -121 0
122 -122 0
75 -127 0
75 -128 0
127 -127 0
128 -128 0
92 -133 0
92 -134 0
133 -133 0
134 -134 0
8 -103 0
8 -104 0
103 -103 0
104 -104 0
25 -109 0
25 -110 0
109 -109 0
110 -110 0
42 -115 0
42 -116 0
115 -115 0
116 -116 0
59 -121 0
59 -122 0
121 -121 0
122 -122 0
76 -127 0
76 -128 0
127 -127 0
128 -128 0
93 -133 0
93 -134 0
133 -133 0
134 -134 0
9 -139 -103 0
-9 139 -103 0
9 139 -104 0
-9 -139 -104 0
26 -139 -109 0
-26 139 -109 0
26 139 -110 0
-26 -139 -110 0
43 -139 -115 0
-43 139 -115 0
43 139 -116 0
-43 -139 -116 0
60 -139 -121 0
-60 139 -121 0
60 139 -122 0
-60 -139 -122 0
77 -139 -127 0
-77 139 -127 0
77 139 -128 0
-77 -139 -128 0
94 -139 -133 0
-94 139 -133 0
94 139 -134 0
-94 -139 -134 0
-10 -103 0
-10 -104 0
103 -103 0
104 -104 0
-27 -109 0
-27 -110 0
109 -109 0
110 -110 0
-44 -115 0
-44 -116 0
115 -115 0
116 -116 0
-61 -121 0
-61 -122 0
121 -121 0
122 -122 0
-78 -127 0
-78 -128 0
127 -127 0
128 -128 0
-95 -133 0
-95 -134 0
133 -133 0
134 -134 0
11 -140 -103 0
-11 140 -103 0
11 140 -104 0
-11 -140 -104 0
28 -140 -109 0
-28 140 -109 0
28 140 -110 0
-28 -140 -110 0
45 -140 -115 0
-45 140 -115 0
45 140 -116 0
-45 -140 -116 0
62 -140 -121 0
-62 140 -121 0
62 140 -122 0
-62 -140 -122 0
79 -140 -127 0
-79 140 -127 0
79 140 -128 0
-79 -140 -128 0
96 -140 -133 0
-96 140 -133 0
96 140 -134 0
-96 -140 -134 0
12 -141 -103 0
-12 141 -103 0
12 141 -104 0
-12 -141 -104 0
29 -141 -109 0
-29 141 -109 0
29 141 -110 0
-29 -141 -110 0
46 -141 -115 0
-46 141 -115 0
46 141 -116 0
-46 -141 -116 0
63 -141 -121 0
-63 141 -121 0
63 141 -122 0
-63 -141 -122 0
80 -141 -127 0
-80 141 -127 0
80 141 -128 0
-80 -141 -128 0
97 -141 -133 0
-97 141 -133 0
97 141 -134 0
-97 -141 -134 0
13 -103 0
13 -104 0
103 -103 0
104 -104 0
30 -109 0
30 -110 0
109 -109 0
110 -110 0
47 -115 0
47 -116 0
115 -115 0
116 -116 0
64 -121 0
64 -122 0
121 -121 0
122 -122 0
81 -127 0
81 -128 0
127 -127 0
128 -128 0
98 -133 0
98 -134 0
133 -133 0
134 -134 0
14 -142 -103 0
-14 142 -103 0
14 142 -104 0
-14 -142 -104 0
31 -142 -109 0
-31 142 -109 0
31 142 -110 0
-31 -142 -110 0
48 -142 -115 0
-48 142 -115 0
48 142 -116 0
-48 -142 -116 0
65 -142 -121 0
-65 142 -121 0
65 142 -122 0
-65 -142 -122 0
82 -142 -127 0
-82 142 -127 0
82 142 -128 0
-82 -142 -128 0
99 -142 -133 0
-99 142 -133 0
99 142 -134 0
-99 -142 -134 0
15 -143 -103 0
-15 143 -103 0
15 143 -104 0
-15 -143 -104 0
32 -143 -109 0
-32 143 -109 0
32 143 -110 0
-32 -143 -110 0
49 -143 -115 0
-49 143 -115 0
49 143 -116 0
-49 -143 -116 0
66 -143 -121 0
-66 143 -121 0
66 143 -122 0
-66 -143 -122 0
83 -143 -127 0
-83 143 -127 0
83 143 -128 0
-83 -143 -128 0
100 -143 -133 0
-100 143 -133 0
100 143 -134 0
-100 -143 -134 0
16 -144 -103 0
-16 144 -103 0
16 144 -104 0
-16 -144 -104 0
33 -144 -109 0
-33 144 -109 0
33 144 -110 0
-33 -144 -110 0
50 -144 -115 0
-50 144 -115 0
50 144 -116 0
-50 -144 -116 0
67 -144 -121 0
-67 144 -121 0
67 144 -122 0
-67 -144 -122 0
84 -144 -127 0
-84 144 -127 0
84 144 -128 0
-84 -144 -128 0
101 -144 -133 0
-101 144 -133 0
101 144 -134 0
-101 -144 -134 0
17 -103 0
17 -104 0
103 -103 0
104 -104 0
34 -109 0
34 -110 0
109 -109 0
110 -110 0
51 -115 0
51 -116 0
115 -115 0
116 -116 0
68 -121 0
68 -122 0
121 -121 0
122 -122 0
85 -127 0
85 -128 0
127 -127 0
128 -128 0
102 -133 0
102 -134 0
133 -133 0
134 -134 0
-190 103 0
190 -103 0
-191 104 0
190 -104 0
-190 -103 0
-191 -104 0
-196 103 190 0
196 -103 0
196 -190 0
-197 104 191 0
197 -104 0
197 -191 0
-196 -109 0
-197 -110 0
-202 109 196 0
202 -109 0
202 -196 0
-203 110 197 0
203 -110 0
203 -197 0
-202 -115 0
-203 -116 0
-208 115 202 0
208 -115 0
208 -202 0
-209 116 203 0
209 -116 0
209 -203 0
-208 -121 0
-209 -122 0
-214 121 208 0
214 -121 0
214 -208 0
-215 122 209 0
215 -122 0
215 -209 0
-214 -127 0
-215 -128 0
-220 127 214 0
220 -127 0
220 -214 0
-221 128 215 0
221 -128 0
221 -215 0
-220 -133 0
-221 -134 0
220 0
221 0
1 -105 0
1 -106 0
105 -105 0
106 -106 0
18 -111 0
18 -112 0
111 -111 0
112 -112 0
35 -117 0
35 -118 0
117 -117 0
118 -118 0
52 -123 0
52 -124 0
123 -123 0
124 -124 0
69 -129 0
69 -130 0
129 -129 0
130 -130 0
86 -135 0
86 -136 0
135 -135 0
136 -136 0
2 -105 0
2 -106 0
105 -105 0
106 -106 0
19 -111 0
19 -112 0
111 -111 0
112 -112 0
36 -117 0
36 -118 0
117 -117 0
118 -118 0
53 -123 0
53 -124 0
123 -123 0
124 -124 0
70 -129 0
70 -130 0
129 -129 0
130 -130 0
87 -135 0
87 -136 0
135 -135 0
136 -136 0
3 -105 0
3 -106 0
105 -105 0
106 -106 0
20 -111 0
20 -112 0
111 -111 0
112 -112 0
37 -117 0
37 -118 0
117 -117 0
118 -118 0
54 -123 0
54 -124 0
123 -123 0
124 -124 0
71 -129 0
71 -130 0
129 -129 0
130 -130 0
88 -135 0
88 -136 0
135 -135 0
136 -136 0
4 -105 0
4 -106 0
105 -105 0
106 -106 0
21 -111 0
21 -112 0
111 -111 0
112 -112 0
38 -117 0
38 -118 0
117 -117 0
118 -118 0
55 -123 0
55 -124 0
123 -123 0
124 -124 0
72 -129 0
72 -130 0
129 -129 0
130 -130 0
89 -135 0
89 -136 0
135 -135 0
136 -136 0
5 -145 -105 0
-5 145 -105 0
5 145 -106 0
-5 -145 -106 0
22 -145 -111 0
-22 145 -111 0
22 145 -112 0
-22 -145 -112 0
39 -145 -117 0
-39 145 -117 0
39 145 -118 0
-39 -145 -118 0
56 -145 -123 0
-56 145 -123 0
56 145 -124 0
-56 -145 -124 0
73 -145 -129 0
-73 145 -129 0
73 145 -130 0
-73 -145 -130 0
90 -145 -135 0
-90 145 -135 0
90 145 -136 0
-90 -145 -136 0
6 -105 0
6 -106 0
105 -105 0
106 -106 0
23 -111 0
23 -112 0
111 -111 0
112 -112 0
40 -117 0
40 -118 0
117 -117 0
118 -118 0
57 -123 0
57 -124 0
123 -123 0
124 -124 0
74 -129 0
74 -130 0
129 -129 0
130 -130 0
91 -135 0
91 -136 0
135 -135 0
136 -136 0
7 -146 -105 0
-7 146 -105 0
7 146 -106 0
-7 -146 -106 0
24 -146 -111 0
-24 146 -111 0
24 146 -112 0
-24 -146 -112 0
41 -146 -117 0
-41 146 -117 0
41 146 -118 0
-41 -146 -118 0
58 -146 -123 0
-58 146 -123 0
58 146 -124 0
-58 -146 -124 0
75 -146 -129 0
-75 146 -129 0
75 146 -130 0
-75 -146 -130 0
92 -146 -135 0
-92 146 -135 0
92 146 -136 0
-92 -146 -136 0
8 -147 -105 0
-8 147 -105 0
8 147 -106 0
-8 -147 -106 0
25 -147 -111 0
-25 147 -111 0
25 147 -112 0
-25 -147 -112 0
42 -147 -117 0
-42 147 -117 0
42 147 -118 0
-42 -147 -118 0
59 -147 -123 0
-59 147 -123 0
59 147 -124 0
-59 -147 -124 0
76 -147 -129 0
-76 147 -129 0
76 147 -130 0
-76 -147 -130 0
93 -147 -135 0
-93 147 -135 0
93 147 -136 0
-93 -147 -136 0
9 -148 -105 0
-9 148 -105 0
9 148 -106 0
-9 -148 -106 0
26 -148 -111 0
-26 148 -111 0
26 148 -112 0
-26 -148 -112 0
43 -148 -117 0
-43 148 -117 0
43 148 -118 0
-43 -148 -118 0
60 -148 -123 0
-60 148 -123 0
60 148 -124 0
-60 -148 -124 0
77 -148 -129 0
-77 148 -129 0
77 148 -130 0
-77 -148 -130 0
94 -148 -135 0
-94 148 -135 0
94 148 -136 0
-94 -148 -136 0
10 -149 -105 0
-10 149 -105 0
10 149 -106 0
-10 -149 -106 0
27 -149 -111 0
-27 149 -111 0
27 149 -112 0
-27 -149 -112 0
44 -149 -117 0
-44 149 -117 0
44 149 -118 0
-44 -149 -118 0
61 -149 -123 0
-61 149 -123 0
61 149 -124 0
-61 -149 -124 0
78 -149 -129 0
-78 149 -129 0
78 149 -130 0
-78 -149 -130 0
95 -149 -135 0
-95 149 -135 0
95 149 -136 0
-95 -149 -136 0
-11 -105 0
-11 -106 0
105 -105 0
106 -106 0
-28 -111 0
-28 -112 0
111 -111 0
112 -112 0
-45 -117 0
-45 -118 0
117 -117 0
118 -118 0
-62 -123 0
-62 -124 0
123 -123 0
124 -124 0
-79 -129 0
-79 -130 0
129 -129 0
130 -130 0
-96 -135 0
-96 -136 0
135 -135 0
136 -136 0
12 -150 -105 0
-12 150 -105 0
12 150 -106 0
-12 -150 -106 0
29 -150 -111 0
-29 150 -111 0
29 150 -112 0
-29 -150 -112 0
46 -150 -117 0
-46 150 -117 0
46 150 -118 0
-46 -150 -118 0
63 -150 -123 0
-63 150 -123 0
63 150 -124 0
-63 -150 -124 0
80 -150 -129 0
-80 150 -129 0
80 150 -130 0
-80 -150 -130 0
97 -150 -135 0
-97 150 -135 0
97 150 -136 0
-97 -150 -136 0
13 -105 0
13 -106 0
105 -105 0
106 -106 0
30 -111 0
30 -112 0
111 -111 0
112 -112 0
47 -117 0
47 -118 0
117 -117 0
118 -118 0
64 -123 0
64 -124 0
123 -123 0
124 -124 0
81 -129 0
81 -130 0
129 -129 0
130 -130 0
98 -135 0
98 -136 0
135 -135 0
136 -136 0
14 -151 -105 0
-14 151 -105 0
14 151 -106 0
-14 -151 -106 0
31 -151 -111 0
-31 151 -111 0
31 151 -112 0
-31 -151 -112 0
48 -151 -117 0
-48 151 -117 0
48 151 -118 0
-48 -151 -118 0
65 -151 -123 0
-65 151 -123 0
65 151 -124 0
-65 -151 -124 0
82 -151 -129 0
-82 151 -129 0
82 151 -130 0
-82 -151 -130 0
99 -151 -135 0
-99 151 -135 0
99 151 -136 0
-99 -151 -136 0
15 -105 0
15 -106 0
105 -105 0
106 -106 0
32 -111 0
32 -112 0
111 -111 0
112 -112 0
49 -117 0
49 -118 0
117 -117 0
118 -118 0
66 -123 0
66 -124 0
123 -123 0
124 -124 0
83 -129 0
83 -130 0
129 -129 0
130 -130 0
100 -135 0
100 -136 0
135 -135 0
136 -136 0
16 -105 0
16 -106 0
105 -105 0
106 -106 0
33 -111 0
33 -112 0
111 -111 0
112 -112 0
50 -117 0
50 -118 0
117 -117 0
118 -118 0
67 -123 0
67 -124 0
123 -123 0
124 -124 0
84 -129 0
84 -130 0
129 -129 0
130 -130 0
101 -135 0
101 -136 0
135 -135 0
136 -136 0
17 -105 0
17 -106 0
105 -105 0
106 -106 0
34 -111 0
34 -112 0
111 -111 0
112 -112 0
51 -117 0
51 -118 0
117 -117 0
118 -118 0
68 -123 0
68 -124 0
123 -123 0
124 -124 0
85 -129 0
85 -130 0
129 -129 0
130 -130 0
102 -135 0
102 -136 0
135 -135 0
136 -136 0
-192 105 0
192 -105 0
-193 106 0
192 -106 0
-192 -105 0
-193 -106 0
-198 105 192 0
198 -105 0
198 -192 0
-199 106 193 0
199 -106 0
199 -193 0
-198 -111 0
-199 -112 0
-204 111 198 0
204 -111 0
204 -198 0
-205 112 199 0
205 -112 0
205 -199 0
-204 -117 0
-205 -118 0
-210 117 204 0
210 -117 0
210 -204 0
-211 118 205 0
211 -118 0
211 -205 0
-210 -123 0
-211 -124 0
-216 123 210 0
216 -123 0
216 -210 0
-217 124 211 0
217 -124 0
217 -211 0
-216 -129 0
-217 -130 0
-222 129 216 0
222 -129 0
222 -216 0
-223 130 217 0
223 -130 0
223 -217 0
-222 -135 0
-223 -136 0
222 0
223 0
1 -152 -107 0
-1 152 -107 0
1 152 -108 0
-1 -152 -108 0
18 -152 -113 0
-18 152 -113 0
18 152 -114 0
-18 -152 -114 0
35 -152 -119 0
-35 152 -119 0
35 152 -120 0
-35 -152 -120 0
52 -152 -125 0
-52 152 -125 0
52 152 -126 0
-52 -152 -126 0
69 -152 -131 0
-69 152 -131 0
69 152 -132 0
-69 -152 -132 0
86 -152 -137 0
-86 152 -137 0
86 152 -138 0
-86 -152 -138 0
2 -107 0
2 -108 0
107 -107 0
108 -108 0
19 -113 0
19 -114 0
113 -113 0
114 -114 0
36 -119 0
36 -120 0
119 -119 0
120 -120 0
53 -125 0
53 -126 0
125 -125 0
126 -126 0
70 -131 0
70 -132 0
131 -131 0
132 -132 0
87 -137 0
87 -138 0
137 -137 0
138 -138 0
3 -153 -107 0
-3 153 -107 0
3 153 -108 0
-3 -153 -108 0
20 -153 -113 0
-20 153 -113 0
20 153 -114 0
-20 -153 -114 0
37 -153 -119 0
-37 153 -119 0
37 153 -120 0
-37 -153 -120 0
54 -153 -125 0
-54 153 -125 0
54 153 -126 0
-54 -153 -126 0
71 -153 -131 0
-71 153 -131 0
71 153 -132 0
-71 -153 -132 0
88 -153 -137 0
-88 153 -137 0
88 153 -138 0
-88 -153 -138 0
4 -154 -107 0
-4 154 -107 0
4 154 -108 0
-4 -154 -108 0
21 -154 -113 0
-21 154 -113 0
21 154 -114 0
-21 -154 -114 0
38 -154 -119 0
-38 154 -119 0
38 154 -120 0
-38 -154 -120 0
55 -154 -125 0
-55 154 -125 0
55 154 -126 0
-55 -154 -126 0
72 -154 -131 0
-72 154 -131 0
72 154 -132 0
-72 -154 -132 0
89 -154 -137 0
-89 154 -137 0
89 154 -138 0
-89 -154 -138 0
5 -107 0
5 -108 0
107 -107 0
108 -108 0
22 -113 0
22 -114 0
113 -113 0
114 -114 0
39 -119 0
39 -120 0
119 -119 0
120 -120 0
56 -125 0
56 -126 0
125 -125 0
126 -126 0
73 -131 0
73 -132 0
131 -131 0
132 -132 0
90 -137 0
90 -138 0
137 -137 0
138 -138 0
6 -107 0
6 -108 0
107 -107 0
108 -108 0
23 -113 0
23 -114 0
113 -113 0
114 -114 0
40 -119 0
40 -120 0
119 -119 0
120 -120 0
57 -125 0
57 -126 0
125 -125 0
126 -126 0
74 -131 0
74 -132 0
131 -131 0
132 -132 0
91 -137 0
91 -138 0
137 -137 0
138 -138 0
7 -107 0
7 -108 0
107 -107 0
108 -108 0
24 -113 0
24 -114 0
113 -113 0
114 -114 0
41 -119 0
41 -120 0
119 -119 0
120 -120 0
58 -125 0
58 -126 0
125 -125 0
126 -126 0
75 -131 0
75 -132 0
131 -131 0
132 -132 0
92 -137 0
92 -138 0
137 -137 0
138 -138 0
8 -107 0
8 -108 0
107 -107 0
108 -108 0
25 -113 0
25 -114 0
113 -113 0
114 -114 0
42 -119 0
42 -120 0
119 -119 0
120 -120 0
59 -125 0
59 -126 0
125 -125 0
126 -126 0
76 -131 0
76 -132 0
131 -131 0
132 -132 0
93 -137 0
93 -138 0
137 -137 0
138 -138 0
9 -107 0
9 -108 0
107 -107 0
108 -108 0
26 -113 0
26 -114 0
113 -113 0
114 -114 0
43 -119 0
43 -120 0
119 -119 0
120 -120 0
60 -125 0
60 -126 0
125 -125 0
126 -126 0
77 -131 0
77 -132 0
131 -131 0
132 -132 0
94 -137 0
94 -138 0
137 -137 0
138 -138 0
-10 -107 0
-10 -108 0
107 -107 0
108 -108 0
-27 -113 0
-27 -114 0
113 -113 0
114 -114 0
-44 -119 0
-44 -120 0
119 -119 0
120 -120 0
-61 -125 0
-61 -126 0
125 -125 0
126 -126 0
-78 -131 0
-78 -132 0
131 -131 0
132 -132 0
-95 -137 0
-95 -138 0
137 -137 0
138 -138 0
11 -107 0
11 -108 0
107 -107 0
108 -108 0
28 -113 0
28 -114 0
113 -113 0
114 -114 0
45 -119 0
45 -120 0
119 -119 0
120 -120 0
62 -125 0
62 -126 0
125 -125 0
126 -126 0
79 -131 0
79 -132 0
131 -131 0
132 -132 0
96 -137 0
96 -138 0
137 -137 0
138 -138 0
12 -107 0
12 -108 0
107 -107 0
108 -108 0
29 -113 0
29 -114 0
113 -113 0
114 -114 0
46 -119 0
46 -120 0
119 -119 0
120 -120 0
63 -125 0
63 -126 0
125 -125 0
126 -126 0
80 -131 0
80 -132 0
131 -131 0
132 -132 0
97 -137 0
97 -138 0
137 -137 0
138 -138 0
13 -107 0
13 -108 0
107 -107 0
108 -108 0
30 -113 0
30 -114 0
113 -113 0
114 -114 0
47 -119 0
47 -120 0
119 -119 0
120 -120 0
64 -125 0
64 -126 0
125 -125 0
126 -126 0
81 -131 0
81 -132 0
131 -131 0
132 -132 0
98 -137 0
98 -138 0
137 -137 0
138 -138 0
-14 -107 0
-14 -108 0
107 -107 0
108 -108 0
-31 -113 0
-31 -114 0
113 -113 0
114 -114 0
-48 -119 0
-48 -120 0
119 -119 0
120 -120 0
-65 -125 0
-65 -126 0
125 -125 0
126 -126 0
-82 -131 0
-82 -132 0
131 -131 0
132 -132 0
-99 -137 0
-99 -138 0
137 -137 0
138 -138 0
-15 -107 0
-15 -108 0
107 -107 0
108 -108 0
-32 -113 0
-32 -114 0
113 -113 0
114 -114 0
-49 -119 0
-49 -120 0
119 -119 0
120 -120 0
-66 -125 0
-66 -126 0
125 -125 0
126 -126 0
-83 -131 0
-83 -132 0
131 -131 0
132 -132 0
-100 -137 0
-100 -138 0
137 -137 0
138 -138 0
-16 -107 0
-16 -108 0
107 -107 0
108 -108 0
-33 -113 0
-33 -114 0
113 -113 0
114 -114 0
-50 -119 0
-50 -120 0
119 -119 0
120 -120 0
-67 -125 0
-67 -126 0
125 -125 0
126 -126 0
-84 -131 0
-84 -132 0
131 -131 0
132 -132 0
-101 -137 0
-101 -138 0
137 -137 0
138 -138 0
17 -107 0
17 -108 0
107 -107 0
108 -108 0
34 -113 0
34 -114 0
113 -113 0
114 -114 0
51 -119 0
51 -120 0
119 -119 0
120 -120 0
68 -125 0
68 -126 0
125 -125 0
126 -126 0
85 -131 0
85 -132 0
131 -131 0
132 -132 0
102 -137 0
102 -138 0
137 -137 0
138 -138 0
-194 107 0
194 -107 0
-195 108 0
194 -108 0
-194 -107 0
-195 -108 0
-200 107 194 0
200 -107 0
200 -194 0
-201 108 195 0
201 -108 0
201 -195 0
-200 -113 0
-201 -114 0
-206 113 200 0
206 -113 0
206 -200 0
-207 114 201 0
207 -114 0
207 -201 0
-206 -119 0
-207 -120 0
-212 119 206 0
212 -119 0
212 -206 0
-213 120 207 0
213 -120 0
213 -207 0
-212 -125 0
-213 -126 0
-218 125 212 0
218 -125 0
218 -212 0
-219 126 213 0
219 -126 0
219 -213 0
-218 -131 0
-219 -132 0
-224 131 218 0
224 -131 0
224 -218 0
-225 132 219 0
225 -132 0
225 -219 0
-224 -137 0
-225 -138 0
224 0
225 0
-103 110 116 122 128 134 0
-104 0
-109 116 122 128 134 0
-110 103 0
-115 122 128 134 0
-116 103 109 0
-121 128 134 0
-122 103 109 115 0
-127 134 0
-128 103 109 115 121 0
-133 0
-134 103 109 115 121 127 0
-105 112 118 124 130 136 0
-106 0
-111 118 124 130 136 0
-112 105 0
-117 124 130 136 0
-118 105 111 0
-123 130 136 0
-124 105 111 117 0
-129 136 0
-130 105 111 117 123 0
-135 0
-136 105 111 117 123 129 0
-107 114 120 126 132 138 0
-108 0
-113 120 126 132 138 0
-114 107 0
-119 126 132 138 0
-120 107 113 0
-125 132 138 0
-126 107 113 119 0
-131 138 0
-132 107 113 119 125 0
-137 0
-138 107 113 119 125 131 0
